NAME: tsp20_18
COMMENT: 20-tsp problem (Padberg/Rinaldi)
TYPE: TSP
DIMENSION: 20
EDGE_WEIGHT_TYPE : EUC_2D
NODE_COORD_SECTION
1 30 4
2 21 35
3 9 11
4 16 25
5 2 34
6 12 1
7 39 27
8 23 11
9 25 19
10 21 32
11 39 4
12 30 37
13 8 25
14 13 14
15 39 34
16 35 5
17 20 33
18 6 14
19 18 30
20 30 4
